100
32
4
15
1
7
18
25
28
5
5
3
12
27
17
10
9
6
21
3
1
27
31
19
14
19
13
8
18
2
2
14
2
12
18
13
13
10
15
2
8
11
19
3
2
14
20
7
21
29
8
26
10
20
1
1
14
7
11
5
25
6
2
32
32
10
18
21
29
3
1
1
5
31
3
1
6
20
12
31
3
17
15
7
1
11
5
3
21
1
21
1
2
1
17
9
1
5
4
2
7
3